# CIF file 
data_findsym-output
_audit_creation_method FINDSYM

_chemical_name_mineral 'CClO'
_chemical_formula_sum 'C Cl O'

loop_
_publ_author_name
 'P. Groth'
 'O. Hassel'
_journal_name_full_name
;
 Acta Chemica Scandinavica
;
_journal_volume 16
_journal_year 1962
_journal_page_first 2311
_journal_page_last 2317
_publ_Section_title
;
 Crystal Structures of Oxalyl Bromide and Oxalyl Chloride
;

_aflow_title 'COCl Structure'
_aflow_proto 'ABC_oP24_61_c_c_c'
_aflow_params 'a,b/a,c/a,x_{1},y_{1},z_{1},x_{2},y_{2},z_{2},x_{3},y_{3},z_{3}'
_aflow_params_values '6.44,0.944099378882,1.85248447205,-0.006,0.062,0.053,-0.034,-0.083,0.167,0.118,0.23,0.05'
_aflow_Strukturbericht 'None'
_aflow_Pearson 'oP24'

_symmetry_space_group_name_H-M "P 21/b 21/c 21/a"
_symmetry_Int_Tables_number 61
 
_cell_length_a    6.44000
_cell_length_b    6.08000
_cell_length_c    11.93000
_cell_angle_alpha 90.00000
_cell_angle_beta  90.00000
_cell_angle_gamma 90.00000
 
loop_
_space_group_symop_id
_space_group_symop_operation_xyz
1 x,y,z
2 x+1/2,-y+1/2,-z
3 -x,y+1/2,-z+1/2
4 -x+1/2,-y,z+1/2
5 -x,-y,-z
6 -x+1/2,y+1/2,z
7 x,-y+1/2,z+1/2
8 x+1/2,y,-z+1/2
 
loop_
_atom_site_label
_atom_site_type_symbol
_atom_site_symmetry_multiplicity
_atom_site_Wyckoff_label
_atom_site_fract_x
_atom_site_fract_y
_atom_site_fract_z
_atom_site_occupancy
C1 C 8 c -0.00600 0.06200 0.05300 1.00000
Cl1 Cl 8 c -0.03400 -0.08300 0.16700 1.00000
O1 O 8 c 0.11800 0.23000 0.05000 1.00000