# CIF file 
data_findsym-output
_audit_creation_method FINDSYM

_chemical_name_mineral '$\epsilon$-1,2,3,4,5,6-hexachlorocyclohexane'
_chemical_formula_sum 'C Cl'

loop_
_publ_author_name
 'N. Norman'
_journal_name_full_name
;
 Acta Chemica Scandinavica
;
_journal_volume 4
_journal_year 1950
_journal_page_first 251
_journal_page_last 259
_publ_Section_title
;
 The Crystal Structure of the Epsilon Isomer of 1,2,3,4,5,6-Hexachloro\em{cyclo}hexane
;

_aflow_title '$\epsilon$-1,2,3,4,5,6-Hexachlorocyclohexane (C$_{6}$Cl$_{6}$) Structure'
_aflow_proto 'AB_mP24_14_3e_3e'
_aflow_params 'a,b/a,c/a,\beta,x_{1},y_{1},z_{1},x_{2},y_{2},z_{2},x_{3},y_{3},z_{3},x_{4},y_{4},z_{4},x_{5},y_{5},z_{5},x_{6},y_{6},z_{6}'
_aflow_params_values '7.02,1.67948717949,0.968660968661,112.0,0.206,0.013,0.005,0.089,0.115,0.095,-0.035,0.041,0.177,0.369,-0.071,0.212,0.27,0.188,0.312,0.81,0.13,0.298'
_aflow_Strukturbericht 'None'
_aflow_Pearson 'mP24'

_symmetry_space_group_name_H-M "P 1 21/c 1"
_symmetry_Int_Tables_number 14
 
_cell_length_a    7.02000
_cell_length_b    11.79000
_cell_length_c    6.80000
_cell_angle_alpha 90.00000
_cell_angle_beta  112.00000
_cell_angle_gamma 90.00000
 
loop_
_space_group_symop_id
_space_group_symop_operation_xyz
1 x,y,z
2 -x,y+1/2,-z+1/2
3 -x,-y,-z
4 x,-y+1/2,z+1/2
 
loop_
_atom_site_label
_atom_site_type_symbol
_atom_site_symmetry_multiplicity
_atom_site_Wyckoff_label
_atom_site_fract_x
_atom_site_fract_y
_atom_site_fract_z
_atom_site_occupancy
C1 C 4 e 0.20600 0.01300 0.00500 1.00000
C2 C 4 e 0.08900 0.11500 0.09500 1.00000
C3 C 4 e -0.03500 0.04100 0.17700 1.00000
Cl1 Cl 4 e 0.36900 -0.07100 0.21200 1.00000
Cl2 Cl 4 e 0.27000 0.18800 0.31200 1.00000
Cl3 Cl 4 e 0.81000 0.13000 0.29800 1.00000